c t pmc
p cnf 4337 1694
c p show 1 2 3 4 5 6 7 8 9 10 11 12 13 14 15 16 17 18 19 20 21 22 23 24 25 26 27 28 29 30 31 32 33 34 35 36 37 38 39 40 41 42 43 44 45 46 47 48 49 50 51 52 53 54 55 56 57 58 59 60 61 62 63 64 0
-5 -1 0
-9 -1 0
-13 -1 0
-1 -5 0
-9 -5 0
-13 -5 0
-1 -9 0
-5 -9 0
-13 -9 0
-1 -13 0
-5 -13 0
-9 -13 0
-21 -17 0
-25 -17 0
-29 -17 0
-17 -21 0
-25 -21 0
-29 -21 0
-17 -25 0
-21 -25 0
-29 -25 0
-17 -29 0
-21 -29 0
-25 -29 0
-37 -33 0
-41 -33 0
-45 -33 0
-33 -37 0
-41 -37 0
-45 -37 0
-33 -41 0
-37 -41 0
-45 -41 0
-33 -45 0
-37 -45 0
-41 -45 0
-53 -49 0
-57 -49 0
-61 -49 0
-49 -53 0
-57 -53 0
-61 -53 0
-49 -57 0
-53 -57 0
-61 -57 0
-49 -61 0
-53 -61 0
-57 -61 0
-6 -2 0
-10 -2 0
-14 -2 0
-2 -6 0
-10 -6 0
-14 -6 0
-2 -10 0
-6 -10 0
-14 -10 0
-2 -14 0
-6 -14 0
-10 -14 0
-22 -18 0
-26 -18 0
-30 -18 0
-18 -22 0
-26 -22 0
-30 -22 0
-18 -26 0
-22 -26 0
-30 -26 0
-18 -30 0
-22 -30 0
-26 -30 0
-38 -34 0
-42 -34 0
-46 -34 0
-34 -38 0
-42 -38 0
-46 -38 0
-34 -42 0
-38 -42 0
-46 -42 0
-34 -46 0
-38 -46 0
-42 -46 0
-54 -50 0
-58 -50 0
-62 -50 0
-50 -54 0
-58 -54 0
-62 -54 0
-50 -58 0
-54 -58 0
-62 -58 0
-50 -62 0
-54 -62 0
-58 -62 0
-7 -3 0
-11 -3 0
-15 -3 0
-3 -7 0
-11 -7 0
-15 -7 0
-3 -11 0
-7 -11 0
-15 -11 0
-3 -15 0
-7 -15 0
-11 -15 0
-23 -19 0
-27 -19 0
-31 -19 0
-19 -23 0
-27 -23 0
-31 -23 0
-19 -27 0
-23 -27 0
-31 -27 0
-19 -31 0
-23 -31 0
-27 -31 0
-39 -35 0
-43 -35 0
-47 -35 0
-35 -39 0
-43 -39 0
-47 -39 0
-35 -43 0
-39 -43 0
-47 -43 0
-35 -47 0
-39 -47 0
-43 -47 0
-55 -51 0
-59 -51 0
-63 -51 0
-51 -55 0
-59 -55 0
-63 -55 0
-51 -59 0
-55 -59 0
-63 -59 0
-51 -63 0
-55 -63 0
-59 -63 0
-8 -4 0
-12 -4 0
-16 -4 0
-4 -8 0
-12 -8 0
-16 -8 0
-4 -12 0
-8 -12 0
-16 -12 0
-4 -16 0
-8 -16 0
-12 -16 0
-24 -20 0
-28 -20 0
-32 -20 0
-20 -24 0
-28 -24 0
-32 -24 0
-20 -28 0
-24 -28 0
-32 -28 0
-20 -32 0
-24 -32 0
-28 -32 0
-40 -36 0
-44 -36 0
-48 -36 0
-36 -40 0
-44 -40 0
-48 -40 0
-36 -44 0
-40 -44 0
-48 -44 0
-36 -48 0
-40 -48 0
-44 -48 0
-56 -52 0
-60 -52 0
-64 -52 0
-52 -56 0
-60 -56 0
-64 -56 0
-52 -60 0
-56 -60 0
-64 -60 0
-52 -64 0
-56 -64 0
-60 -64 0
-17 -1 0
-33 -1 0
-49 -1 0
-1 -17 0
-33 -17 0
-49 -17 0
-1 -33 0
-17 -33 0
-49 -33 0
-1 -49 0
-17 -49 0
-33 -49 0
-21 -5 0
-37 -5 0
-53 -5 0
-5 -21 0
-37 -21 0
-53 -21 0
-5 -37 0
-21 -37 0
-53 -37 0
-5 -53 0
-21 -53 0
-37 -53 0
-25 -9 0
-41 -9 0
-57 -9 0
-9 -25 0
-41 -25 0
-57 -25 0
-9 -41 0
-25 -41 0
-57 -41 0
-9 -57 0
-25 -57 0
-41 -57 0
-29 -13 0
-45 -13 0
-61 -13 0
-13 -29 0
-45 -29 0
-61 -29 0
-13 -45 0
-29 -45 0
-61 -45 0
-13 -61 0
-29 -61 0
-45 -61 0
-18 -2 0
-34 -2 0
-50 -2 0
-2 -18 0
-34 -18 0
-50 -18 0
-2 -34 0
-18 -34 0
-50 -34 0
-2 -50 0
-18 -50 0
-34 -50 0
-22 -6 0
-38 -6 0
-54 -6 0
-6 -22 0
-38 -22 0
-54 -22 0
-6 -38 0
-22 -38 0
-54 -38 0
-6 -54 0
-22 -54 0
-38 -54 0
-26 -10 0
-42 -10 0
-58 -10 0
-10 -26 0
-42 -26 0
-58 -26 0
-10 -42 0
-26 -42 0
-58 -42 0
-10 -58 0
-26 -58 0
-42 -58 0
-30 -14 0
-46 -14 0
-62 -14 0
-14 -30 0
-46 -30 0
-62 -30 0
-14 -46 0
-30 -46 0
-62 -46 0
-14 -62 0
-30 -62 0
-46 -62 0
-19 -3 0
-35 -3 0
-51 -3 0
-3 -19 0
-35 -19 0
-51 -19 0
-3 -35 0
-19 -35 0
-51 -35 0
-3 -51 0
-19 -51 0
-35 -51 0
-23 -7 0
-39 -7 0
-55 -7 0
-7 -23 0
-39 -23 0
-55 -23 0
-7 -39 0
-23 -39 0
-55 -39 0
-7 -55 0
-23 -55 0
-39 -55 0
-27 -11 0
-43 -11 0
-59 -11 0
-11 -27 0
-43 -27 0
-59 -27 0
-11 -43 0
-27 -43 0
-59 -43 0
-11 -59 0
-27 -59 0
-43 -59 0
-31 -15 0
-47 -15 0
-63 -15 0
-15 -31 0
-47 -31 0
-63 -31 0
-15 -47 0
-31 -47 0
-63 -47 0
-15 -63 0
-31 -63 0
-47 -63 0
-20 -4 0
-36 -4 0
-52 -4 0
-4 -20 0
-36 -20 0
-52 -20 0
-4 -36 0
-20 -36 0
-52 -36 0
-4 -52 0
-20 -52 0
-36 -52 0
-24 -8 0
-40 -8 0
-56 -8 0
-8 -24 0
-40 -24 0
-56 -24 0
-8 -40 0
-24 -40 0
-56 -40 0
-8 -56 0
-24 -56 0
-40 -56 0
-28 -12 0
-44 -12 0
-60 -12 0
-12 -28 0
-44 -28 0
-60 -28 0
-12 -44 0
-28 -44 0
-60 -44 0
-12 -60 0
-28 -60 0
-44 -60 0
-32 -16 0
-48 -16 0
-64 -16 0
-16 -32 0
-48 -32 0
-64 -32 0
-16 -48 0
-32 -48 0
-64 -48 0
-16 -64 0
-32 -64 0
-48 -64 0
-65 1 0
-65 6 0
-65 11 0
-65 16 0
-66 17 0
-66 22 0
-66 27 0
-66 32 0
-67 33 0
-67 38 0
-67 43 0
-67 48 0
-68 49 0
-68 54 0
-68 59 0
-68 64 0
-65 1 0
-65 18 0
-65 35 0
-65 52 0
-66 5 0
-66 22 0
-66 39 0
-66 56 0
-67 9 0
-67 26 0
-67 43 0
-67 60 0
-68 13 0
-68 30 0
-68 47 0
-68 64 0
-69 -1 1 0
-69 -5 2 0
-69 -9 3 0
-69 -13 4 0
-70 -17 1 0
-70 -21 2 0
-70 -25 3 0
-70 -29 4 0
-71 -33 1 0
-71 -37 2 0
-71 -41 3 0
-71 -45 4 0
-72 -49 1 0
-72 -53 2 0
-72 -57 3 0
-72 -61 4 0
-69 -2 5 0
-69 -6 6 0
-69 -10 7 0
-69 -14 8 0
-70 -18 5 0
-70 -22 6 0
-70 -26 7 0
-70 -30 8 0
-71 -34 5 0
-71 -38 6 0
-71 -42 7 0
-71 -46 8 0
-72 -50 5 0
-72 -54 6 0
-72 -58 7 0
-72 -62 8 0
-69 -3 9 0
-69 -7 10 0
-69 -11 11 0
-69 -15 12 0
-70 -19 9 0
-70 -23 10 0
-70 -27 11 0
-70 -31 12 0
-71 -35 9 0
-71 -39 10 0
-71 -43 11 0
-71 -47 12 0
-72 -51 9 0
-72 -55 10 0
-72 -59 11 0
-72 -63 12 0
-69 -4 13 0
-69 -8 14 0
-69 -12 15 0
-69 -16 16 0
-70 -20 13 0
-70 -24 14 0
-70 -28 15 0
-70 -32 16 0
-71 -36 13 0
-71 -40 14 0
-71 -44 15 0
-71 -48 16 0
-72 -52 13 0
-72 -56 14 0
-72 -60 15 0
-72 -64 16 0
-73 -1 17 0
-73 -5 18 0
-73 -9 19 0
-73 -13 20 0
-74 -17 17 0
-74 -21 18 0
-74 -25 19 0
-74 -29 20 0
-75 -33 17 0
-75 -37 18 0
-75 -41 19 0
-75 -45 20 0
-76 -49 17 0
-76 -53 18 0
-76 -57 19 0
-76 -61 20 0
-73 -2 21 0
-73 -6 22 0
-73 -10 23 0
-73 -14 24 0
-74 -18 21 0
-74 -22 22 0
-74 -26 23 0
-74 -30 24 0
-75 -34 21 0
-75 -38 22 0
-75 -42 23 0
-75 -46 24 0
-76 -50 21 0
-76 -54 22 0
-76 -58 23 0
-76 -62 24 0
-73 -3 25 0
-73 -7 26 0
-73 -11 27 0
-73 -15 28 0
-74 -19 25 0
-74 -23 26 0
-74 -27 27 0
-74 -31 28 0
-75 -35 25 0
-75 -39 26 0
-75 -43 27 0
-75 -47 28 0
-76 -51 25 0
-76 -55 26 0
-76 -59 27 0
-76 -63 28 0
-73 -4 29 0
-73 -8 30 0
-73 -12 31 0
-73 -16 32 0
-74 -20 29 0
-74 -24 30 0
-74 -28 31 0
-74 -32 32 0
-75 -36 29 0
-75 -40 30 0
-75 -44 31 0
-75 -48 32 0
-76 -52 29 0
-76 -56 30 0
-76 -60 31 0
-76 -64 32 0
-77 -1 33 0
-77 -5 34 0
-77 -9 35 0
-77 -13 36 0
-78 -17 33 0
-78 -21 34 0
-78 -25 35 0
-78 -29 36 0
-79 -33 33 0
-79 -37 34 0
-79 -41 35 0
-79 -45 36 0
-80 -49 33 0
-80 -53 34 0
-80 -57 35 0
-80 -61 36 0
-77 -2 37 0
-77 -6 38 0
-77 -10 39 0
-77 -14 40 0
-78 -18 37 0
-78 -22 38 0
-78 -26 39 0
-78 -30 40 0
-79 -34 37 0
-79 -38 38 0
-79 -42 39 0
-79 -46 40 0
-80 -50 37 0
-80 -54 38 0
-80 -58 39 0
-80 -62 40 0
-77 -3 41 0
-77 -7 42 0
-77 -11 43 0
-77 -15 44 0
-78 -19 41 0
-78 -23 42 0
-78 -27 43 0
-78 -31 44 0
-79 -35 41 0
-79 -39 42 0
-79 -43 43 0
-79 -47 44 0
-80 -51 41 0
-80 -55 42 0
-80 -59 43 0
-80 -63 44 0
-77 -4 45 0
-77 -8 46 0
-77 -12 47 0
-77 -16 48 0
-78 -20 45 0
-78 -24 46 0
-78 -28 47 0
-78 -32 48 0
-79 -36 45 0
-79 -40 46 0
-79 -44 47 0
-79 -48 48 0
-80 -52 45 0
-80 -56 46 0
-80 -60 47 0
-80 -64 48 0
-81 -1 49 0
-81 -5 50 0
-81 -9 51 0
-81 -13 52 0
-82 -17 49 0
-82 -21 50 0
-82 -25 51 0
-82 -29 52 0
-83 -33 49 0
-83 -37 50 0
-83 -41 51 0
-83 -45 52 0
-84 -49 49 0
-84 -53 50 0
-84 -57 51 0
-84 -61 52 0
-81 -2 53 0
-81 -6 54 0
-81 -10 55 0
-81 -14 56 0
-82 -18 53 0
-82 -22 54 0
-82 -26 55 0
-82 -30 56 0
-83 -34 53 0
-83 -38 54 0
-83 -42 55 0
-83 -46 56 0
-84 -50 53 0
-84 -54 54 0
-84 -58 55 0
-84 -62 56 0
-81 -3 57 0
-81 -7 58 0
-81 -11 59 0
-81 -15 60 0
-82 -19 57 0
-82 -23 58 0
-82 -27 59 0
-82 -31 60 0
-83 -35 57 0
-83 -39 58 0
-83 -43 59 0
-83 -47 60 0
-84 -51 57 0
-84 -55 58 0
-84 -59 59 0
-84 -63 60 0
-81 -4 61 0
-81 -8 62 0
-81 -12 63 0
-81 -16 64 0
-82 -20 61 0
-82 -24 62 0
-82 -28 63 0
-82 -32 64 0
-83 -36 61 0
-83 -40 62 0
-83 -44 63 0
-83 -48 64 0
-84 -52 61 0
-84 -56 62 0
-84 -60 63 0
-84 -64 64 0
-1 -69 1 0
-17 -69 2 0
-33 -69 3 0
-49 -69 4 0
-5 -70 1 0
-21 -70 2 0
-37 -70 3 0
-53 -70 4 0
-9 -71 1 0
-25 -71 2 0
-41 -71 3 0
-57 -71 4 0
-13 -72 1 0
-29 -72 2 0
-45 -72 3 0
-61 -72 4 0
-1 -73 5 0
-17 -73 6 0
-33 -73 7 0
-49 -73 8 0
-5 -74 5 0
-21 -74 6 0
-37 -74 7 0
-53 -74 8 0
-9 -75 5 0
-25 -75 6 0
-41 -75 7 0
-57 -75 8 0
-13 -76 5 0
-29 -76 6 0
-45 -76 7 0
-61 -76 8 0
-1 -77 9 0
-17 -77 10 0
-33 -77 11 0
-49 -77 12 0
-5 -78 9 0
-21 -78 10 0
-37 -78 11 0
-53 -78 12 0
-9 -79 9 0
-25 -79 10 0
-41 -79 11 0
-57 -79 12 0
-13 -80 9 0
-29 -80 10 0
-45 -80 11 0
-61 -80 12 0
-1 -81 13 0
-17 -81 14 0
-33 -81 15 0
-49 -81 16 0
-5 -82 13 0
-21 -82 14 0
-37 -82 15 0
-53 -82 16 0
-9 -83 13 0
-25 -83 14 0
-41 -83 15 0
-57 -83 16 0
-13 -84 13 0
-29 -84 14 0
-45 -84 15 0
-61 -84 16 0
-2 -69 17 0
-18 -69 18 0
-34 -69 19 0
-50 -69 20 0
-6 -70 17 0
-22 -70 18 0
-38 -70 19 0
-54 -70 20 0
-10 -71 17 0
-26 -71 18 0
-42 -71 19 0
-58 -71 20 0
-14 -72 17 0
-30 -72 18 0
-46 -72 19 0
-62 -72 20 0
-2 -73 21 0
-18 -73 22 0
-34 -73 23 0
-50 -73 24 0
-6 -74 21 0
-22 -74 22 0
-38 -74 23 0
-54 -74 24 0
-10 -75 21 0
-26 -75 22 0
-42 -75 23 0
-58 -75 24 0
-14 -76 21 0
-30 -76 22 0
-46 -76 23 0
-62 -76 24 0
-2 -77 25 0
-18 -77 26 0
-34 -77 27 0
-50 -77 28 0
-6 -78 25 0
-22 -78 26 0
-38 -78 27 0
-54 -78 28 0
-10 -79 25 0
-26 -79 26 0
-42 -79 27 0
-58 -79 28 0
-14 -80 25 0
-30 -80 26 0
-46 -80 27 0
-62 -80 28 0
-2 -81 29 0
-18 -81 30 0
-34 -81 31 0
-50 -81 32 0
-6 -82 29 0
-22 -82 30 0
-38 -82 31 0
-54 -82 32 0
-10 -83 29 0
-26 -83 30 0
-42 -83 31 0
-58 -83 32 0
-14 -84 29 0
-30 -84 30 0
-46 -84 31 0
-62 -84 32 0
-3 -69 33 0
-19 -69 34 0
-35 -69 35 0
-51 -69 36 0
-7 -70 33 0
-23 -70 34 0
-39 -70 35 0
-55 -70 36 0
-11 -71 33 0
-27 -71 34 0
-43 -71 35 0
-59 -71 36 0
-15 -72 33 0
-31 -72 34 0
-47 -72 35 0
-63 -72 36 0
-3 -73 37 0
-19 -73 38 0
-35 -73 39 0
-51 -73 40 0
-7 -74 37 0
-23 -74 38 0
-39 -74 39 0
-55 -74 40 0
-11 -75 37 0
-27 -75 38 0
-43 -75 39 0
-59 -75 40 0
-15 -76 37 0
-31 -76 38 0
-47 -76 39 0
-63 -76 40 0
-3 -77 41 0
-19 -77 42 0
-35 -77 43 0
-51 -77 44 0
-7 -78 41 0
-23 -78 42 0
-39 -78 43 0
-55 -78 44 0
-11 -79 41 0
-27 -79 42 0
-43 -79 43 0
-59 -79 44 0
-15 -80 41 0
-31 -80 42 0
-47 -80 43 0
-63 -80 44 0
-3 -81 45 0
-19 -81 46 0
-35 -81 47 0
-51 -81 48 0
-7 -82 45 0
-23 -82 46 0
-39 -82 47 0
-55 -82 48 0
-11 -83 45 0
-27 -83 46 0
-43 -83 47 0
-59 -83 48 0
-15 -84 45 0
-31 -84 46 0
-47 -84 47 0
-63 -84 48 0
-4 -69 49 0
-20 -69 50 0
-36 -69 51 0
-52 -69 52 0
-8 -70 49 0
-24 -70 50 0
-40 -70 51 0
-56 -70 52 0
-12 -71 49 0
-28 -71 50 0
-44 -71 51 0
-60 -71 52 0
-16 -72 49 0
-32 -72 50 0
-48 -72 51 0
-64 -72 52 0
-4 -73 53 0
-20 -73 54 0
-36 -73 55 0
-52 -73 56 0
-8 -74 53 0
-24 -74 54 0
-40 -74 55 0
-56 -74 56 0
-12 -75 53 0
-28 -75 54 0
-44 -75 55 0
-60 -75 56 0
-16 -76 53 0
-32 -76 54 0
-48 -76 55 0
-64 -76 56 0
-4 -77 57 0
-20 -77 58 0
-36 -77 59 0
-52 -77 60 0
-8 -78 57 0
-24 -78 58 0
-40 -78 59 0
-56 -78 60 0
-12 -79 57 0
-28 -79 58 0
-44 -79 59 0
-60 -79 60 0
-16 -80 57 0
-32 -80 58 0
-48 -80 59 0
-64 -80 60 0
-4 -81 61 0
-20 -81 62 0
-36 -81 63 0
-52 -81 64 0
-8 -82 61 0
-24 -82 62 0
-40 -82 63 0
-56 -82 64 0
-12 -83 61 0
-28 -83 62 0
-44 -83 63 0
-60 -83 64 0
-16 -84 61 0
-32 -84 62 0
-48 -84 63 0
-64 -84 64 0
1 2 3 4 0
-1 -2 0
-1 -3 0
-1 -4 0
-2 -3 0
-2 -4 0
-3 -4 0
5 6 7 8 0
-5 -6 0
-5 -7 0
-5 -8 0
-6 -7 0
-6 -8 0
-7 -8 0
9 10 11 12 0
-9 -10 0
-9 -11 0
-9 -12 0
-10 -11 0
-10 -12 0
-11 -12 0
13 14 15 16 0
-13 -14 0
-13 -15 0
-13 -16 0
-14 -15 0
-14 -16 0
-15 -16 0
17 18 19 20 0
-17 -18 0
-17 -19 0
-17 -20 0
-18 -19 0
-18 -20 0
-19 -20 0
21 22 23 24 0
-21 -22 0
-21 -23 0
-21 -24 0
-22 -23 0
-22 -24 0
-23 -24 0
25 26 27 28 0
-25 -26 0
-25 -27 0
-25 -28 0
-26 -27 0
-26 -28 0
-27 -28 0
29 30 31 32 0
-29 -30 0
-29 -31 0
-29 -32 0
-30 -31 0
-30 -32 0
-31 -32 0
33 34 35 36 0
-33 -34 0
-33 -35 0
-33 -36 0
-34 -35 0
-34 -36 0
-35 -36 0
37 38 39 40 0
-37 -38 0
-37 -39 0
-37 -40 0
-38 -39 0
-38 -40 0
-39 -40 0
41 42 43 44 0
-41 -42 0
-41 -43 0
-41 -44 0
-42 -43 0
-42 -44 0
-43 -44 0
45 46 47 48 0
-45 -46 0
-45 -47 0
-45 -48 0
-46 -47 0
-46 -48 0
-47 -48 0
49 50 51 52 0
-49 -50 0
-49 -51 0
-49 -52 0
-50 -51 0
-50 -52 0
-51 -52 0
53 54 55 56 0
-53 -54 0
-53 -55 0
-53 -56 0
-54 -55 0
-54 -56 0
-55 -56 0
57 58 59 60 0
-57 -58 0
-57 -59 0
-57 -60 0
-58 -59 0
-58 -60 0
-59 -60 0
61 62 63 64 0
-61 -62 0
-61 -63 0
-61 -64 0
-62 -63 0
-62 -64 0
-63 -64 0
69 73 77 81 0
-69 -73 0
-69 -77 0
-69 -81 0
-73 -77 0
-73 -81 0
-77 -81 0
70 74 78 82 0
-70 -74 0
-70 -78 0
-70 -82 0
-74 -78 0
-74 -82 0
-78 -82 0
71 75 79 83 0
-71 -75 0
-71 -79 0
-71 -83 0
-75 -79 0
-75 -83 0
-79 -83 0
72 76 80 84 0
-72 -76 0
-72 -80 0
-72 -84 0
-76 -80 0
-76 -84 0
-80 -84 0
65 66 67 68 0
-65 -66 0
-65 -67 0
-65 -68 0
-66 -67 0
-66 -68 0
-67 -68 0
65 0
-4291 2 0
-4292 1 0
4291 4292 0
4291 4293 0
-4293 4294 4295 0
-4293 4294 4296 0
-4296 4297 4298 0
-4296 4297 4299 0
-4299 4300 4301 0
-4299 4300 4302 0
-4302 4303 4304 0
-4302 4303 4305 0
-4305 4306 4307 0
-4305 4306 4308 0
-4308 4309 4310 0
-4308 4309 4311 0
-4311 4312 4313 0
-4311 4312 4314 0
-4314 4315 4316 0
-4314 4315 4317 0
-4317 4318 4319 0
-4317 4318 4320 0
-4320 4321 4322 0
-4320 4321 4323 0
-4323 4324 4325 0
-4323 4324 4326 0
-4326 4327 4328 0
-4326 4327 4329 0
-4329 4330 4331 0
-4329 4330 4332 0
-4332 4333 4334 0
-4332 4333 4335 0
-4335 4336 4337 0
-4294 -5 10 11 12 0
-4294 -6 10 12 0
-4294 -7 10 0
-4294 -8 0
-4295 -5 9 0
-4295 -6 11 0
-4295 -7 12 0
-4295 -8 10 0
4291 4292 0
4291 4293 0
-4293 4294 4295 0
-4293 4294 4296 0
-4296 4297 4298 0
-4296 4297 4299 0
-4299 4300 4301 0
-4299 4300 4302 0
-4302 4303 4304 0
-4302 4303 4305 0
-4305 4306 4307 0
-4305 4306 4308 0
-4308 4309 4310 0
-4308 4309 4311 0
-4311 4312 4313 0
-4311 4312 4314 0
-4314 4315 4316 0
-4314 4315 4317 0
-4317 4318 4319 0
-4317 4318 4320 0
-4320 4321 4322 0
-4320 4321 4323 0
-4323 4324 4325 0
-4323 4324 4326 0
-4326 4327 4328 0
-4326 4327 4329 0
-4329 4330 4331 0
-4329 4330 4332 0
-4332 4333 4334 0
-4332 4333 4335 0
-4335 4336 4337 0
-4297 -9 14 15 16 0
-4297 -10 14 16 0
-4297 -11 14 0
-4297 -12 0
-4298 -9 13 0
-4298 -10 15 0
-4298 -11 16 0
-4298 -12 14 0
4291 4292 0
4291 4293 0
-4293 4294 4295 0
-4293 4294 4296 0
-4296 4297 4298 0
-4296 4297 4299 0
-4299 4300 4301 0
-4299 4300 4302 0
-4302 4303 4304 0
-4302 4303 4305 0
-4305 4306 4307 0
-4305 4306 4308 0
-4308 4309 4310 0
-4308 4309 4311 0
-4311 4312 4313 0
-4311 4312 4314 0
-4314 4315 4316 0
-4314 4315 4317 0
-4317 4318 4319 0
-4317 4318 4320 0
-4320 4321 4322 0
-4320 4321 4323 0
-4323 4324 4325 0
-4323 4324 4326 0
-4326 4327 4328 0
-4326 4327 4329 0
-4329 4330 4331 0
-4329 4330 4332 0
-4332 4333 4334 0
-4332 4333 4335 0
-4335 4336 4337 0
-4300 -13 6 7 8 0
-4300 -14 6 8 0
-4300 -15 6 0
-4300 -16 0
-4301 -13 5 0
-4301 -14 7 0
-4301 -15 8 0
-4301 -16 6 0
4291 4292 0
4291 4293 0
-4293 4294 4295 0
-4293 4294 4296 0
-4296 4297 4298 0
-4296 4297 4299 0
-4299 4300 4301 0
-4299 4300 4302 0
-4302 4303 4304 0
-4302 4303 4305 0
-4305 4306 4307 0
-4305 4306 4308 0
-4308 4309 4310 0
-4308 4309 4311 0
-4311 4312 4313 0
-4311 4312 4314 0
-4314 4315 4316 0
-4314 4315 4317 0
-4317 4318 4319 0
-4317 4318 4320 0
-4320 4321 4322 0
-4320 4321 4323 0
-4323 4324 4325 0
-4323 4324 4326 0
-4326 4327 4328 0
-4326 4327 4329 0
-4329 4330 4331 0
-4329 4330 4332 0
-4332 4333 4334 0
-4332 4333 4335 0
-4335 4336 4337 0
-4303 -17 34 35 36 0
-4303 -18 34 36 0
-4303 -19 34 0
-4303 -20 0
-4304 -17 33 0
-4304 -18 35 0
-4304 -19 36 0
-4304 -20 34 0
4291 4292 0
4291 4293 0
-4293 4294 4295 0
-4293 4294 4296 0
-4296 4297 4298 0
-4296 4297 4299 0
-4299 4300 4301 0
-4299 4300 4302 0
-4302 4303 4304 0
-4302 4303 4305 0
-4305 4306 4307 0
-4305 4306 4308 0
-4308 4309 4310 0
-4308 4309 4311 0
-4311 4312 4313 0
-4311 4312 4314 0
-4314 4315 4316 0
-4314 4315 4317 0
-4317 4318 4319 0
-4317 4318 4320 0
-4320 4321 4322 0
-4320 4321 4323 0
-4323 4324 4325 0
-4323 4324 4326 0
-4326 4327 4328 0
-4326 4327 4329 0
-4329 4330 4331 0
-4329 4330 4332 0
-4332 4333 4334 0
-4332 4333 4335 0
-4335 4336 4337 0
-4306 -21 42 43 44 0
-4306 -22 42 44 0
-4306 -23 42 0
-4306 -24 0
-4307 -21 41 0
-4307 -22 43 0
-4307 -23 44 0
-4307 -24 42 0
4291 4292 0
4291 4293 0
-4293 4294 4295 0
-4293 4294 4296 0
-4296 4297 4298 0
-4296 4297 4299 0
-4299 4300 4301 0
-4299 4300 4302 0
-4302 4303 4304 0
-4302 4303 4305 0
-4305 4306 4307 0
-4305 4306 4308 0
-4308 4309 4310 0
-4308 4309 4311 0
-4311 4312 4313 0
-4311 4312 4314 0
-4314 4315 4316 0
-4314 4315 4317 0
-4317 4318 4319 0
-4317 4318 4320 0
-4320 4321 4322 0
-4320 4321 4323 0
-4323 4324 4325 0
-4323 4324 4326 0
-4326 4327 4328 0
-4326 4327 4329 0
-4329 4330 4331 0
-4329 4330 4332 0
-4332 4333 4334 0
-4332 4333 4335 0
-4335 4336 4337 0
-4309 -25 46 47 48 0
-4309 -26 46 48 0
-4309 -27 46 0
-4309 -28 0
-4310 -25 45 0
-4310 -26 47 0
-4310 -27 48 0
-4310 -28 46 0
4291 4292 0
4291 4293 0
-4293 4294 4295 0
-4293 4294 4296 0
-4296 4297 4298 0
-4296 4297 4299 0
-4299 4300 4301 0
-4299 4300 4302 0
-4302 4303 4304 0
-4302 4303 4305 0
-4305 4306 4307 0
-4305 4306 4308 0
-4308 4309 4310 0
-4308 4309 4311 0
-4311 4312 4313 0
-4311 4312 4314 0
-4314 4315 4316 0
-4314 4315 4317 0
-4317 4318 4319 0
-4317 4318 4320 0
-4320 4321 4322 0
-4320 4321 4323 0
-4323 4324 4325 0
-4323 4324 4326 0
-4326 4327 4328 0
-4326 4327 4329 0
-4329 4330 4331 0
-4329 4330 4332 0
-4332 4333 4334 0
-4332 4333 4335 0
-4335 4336 4337 0
-4312 -29 38 39 40 0
-4312 -30 38 40 0
-4312 -31 38 0
-4312 -32 0
-4313 -29 37 0
-4313 -30 39 0
-4313 -31 40 0
-4313 -32 38 0
4291 4292 0
4291 4293 0
-4293 4294 4295 0
-4293 4294 4296 0
-4296 4297 4298 0
-4296 4297 4299 0
-4299 4300 4301 0
-4299 4300 4302 0
-4302 4303 4304 0
-4302 4303 4305 0
-4305 4306 4307 0
-4305 4306 4308 0
-4308 4309 4310 0
-4308 4309 4311 0
-4311 4312 4313 0
-4311 4312 4314 0
-4314 4315 4316 0
-4314 4315 4317 0
-4317 4318 4319 0
-4317 4318 4320 0
-4320 4321 4322 0
-4320 4321 4323 0
-4323 4324 4325 0
-4323 4324 4326 0
-4326 4327 4328 0
-4326 4327 4329 0
-4329 4330 4331 0
-4329 4330 4332 0
-4332 4333 4334 0
-4332 4333 4335 0
-4335 4336 4337 0
-4315 -33 50 51 52 0
-4315 -34 50 52 0
-4315 -35 50 0
-4315 -36 0
-4316 -33 49 0
-4316 -34 51 0
-4316 -35 52 0
-4316 -36 50 0
4291 4292 0
4291 4293 0
-4293 4294 4295 0
-4293 4294 4296 0
-4296 4297 4298 0
-4296 4297 4299 0
-4299 4300 4301 0
-4299 4300 4302 0
-4302 4303 4304 0
-4302 4303 4305 0
-4305 4306 4307 0
-4305 4306 4308 0
-4308 4309 4310 0
-4308 4309 4311 0
-4311 4312 4313 0
-4311 4312 4314 0
-4314 4315 4316 0
-4314 4315 4317 0
-4317 4318 4319 0
-4317 4318 4320 0
-4320 4321 4322 0
-4320 4321 4323 0
-4323 4324 4325 0
-4323 4324 4326 0
-4326 4327 4328 0
-4326 4327 4329 0
-4329 4330 4331 0
-4329 4330 4332 0
-4332 4333 4334 0
-4332 4333 4335 0
-4335 4336 4337 0
-4318 -37 58 59 60 0
-4318 -38 58 60 0
-4318 -39 58 0
-4318 -40 0
-4319 -37 57 0
-4319 -38 59 0
-4319 -39 60 0
-4319 -40 58 0
4291 4292 0
4291 4293 0
-4293 4294 4295 0
-4293 4294 4296 0
-4296 4297 4298 0
-4296 4297 4299 0
-4299 4300 4301 0
-4299 4300 4302 0
-4302 4303 4304 0
-4302 4303 4305 0
-4305 4306 4307 0
-4305 4306 4308 0
-4308 4309 4310 0
-4308 4309 4311 0
-4311 4312 4313 0
-4311 4312 4314 0
-4314 4315 4316 0
-4314 4315 4317 0
-4317 4318 4319 0
-4317 4318 4320 0
-4320 4321 4322 0
-4320 4321 4323 0
-4323 4324 4325 0
-4323 4324 4326 0
-4326 4327 4328 0
-4326 4327 4329 0
-4329 4330 4331 0
-4329 4330 4332 0
-4332 4333 4334 0
-4332 4333 4335 0
-4335 4336 4337 0
-4321 -41 62 63 64 0
-4321 -42 62 64 0
-4321 -43 62 0
-4321 -44 0
-4322 -41 61 0
-4322 -42 63 0
-4322 -43 64 0
-4322 -44 62 0
4291 4292 0
4291 4293 0
-4293 4294 4295 0
-4293 4294 4296 0
-4296 4297 4298 0
-4296 4297 4299 0
-4299 4300 4301 0
-4299 4300 4302 0
-4302 4303 4304 0
-4302 4303 4305 0
-4305 4306 4307 0
-4305 4306 4308 0
-4308 4309 4310 0
-4308 4309 4311 0
-4311 4312 4313 0
-4311 4312 4314 0
-4314 4315 4316 0
-4314 4315 4317 0
-4317 4318 4319 0
-4317 4318 4320 0
-4320 4321 4322 0
-4320 4321 4323 0
-4323 4324 4325 0
-4323 4324 4326 0
-4326 4327 4328 0
-4326 4327 4329 0
-4329 4330 4331 0
-4329 4330 4332 0
-4332 4333 4334 0
-4332 4333 4335 0
-4335 4336 4337 0
-4324 -45 54 55 56 0
-4324 -46 54 56 0
-4324 -47 54 0
-4324 -48 0
-4325 -45 53 0
-4325 -46 55 0
-4325 -47 56 0
-4325 -48 54 0
4291 4292 0
4291 4293 0
-4293 4294 4295 0
-4293 4294 4296 0
-4296 4297 4298 0
-4296 4297 4299 0
-4299 4300 4301 0
-4299 4300 4302 0
-4302 4303 4304 0
-4302 4303 4305 0
-4305 4306 4307 0
-4305 4306 4308 0
-4308 4309 4310 0
-4308 4309 4311 0
-4311 4312 4313 0
-4311 4312 4314 0
-4314 4315 4316 0
-4314 4315 4317 0
-4317 4318 4319 0
-4317 4318 4320 0
-4320 4321 4322 0
-4320 4321 4323 0
-4323 4324 4325 0
-4323 4324 4326 0
-4326 4327 4328 0
-4326 4327 4329 0
-4329 4330 4331 0
-4329 4330 4332 0
-4332 4333 4334 0
-4332 4333 4335 0
-4335 4336 4337 0
-4327 -49 18 19 20 0
-4327 -50 18 20 0
-4327 -51 18 0
-4327 -52 0
-4328 -49 17 0
-4328 -50 19 0
-4328 -51 20 0
-4328 -52 18 0
4291 4292 0
4291 4293 0
-4293 4294 4295 0
-4293 4294 4296 0
-4296 4297 4298 0
-4296 4297 4299 0
-4299 4300 4301 0
-4299 4300 4302 0
-4302 4303 4304 0
-4302 4303 4305 0
-4305 4306 4307 0
-4305 4306 4308 0
-4308 4309 4310 0
-4308 4309 4311 0
-4311 4312 4313 0
-4311 4312 4314 0
-4314 4315 4316 0
-4314 4315 4317 0
-4317 4318 4319 0
-4317 4318 4320 0
-4320 4321 4322 0
-4320 4321 4323 0
-4323 4324 4325 0
-4323 4324 4326 0
-4326 4327 4328 0
-4326 4327 4329 0
-4329 4330 4331 0
-4329 4330 4332 0
-4332 4333 4334 0
-4332 4333 4335 0
-4335 4336 4337 0
-4330 -53 26 27 28 0
-4330 -54 26 28 0
-4330 -55 26 0
-4330 -56 0
-4331 -53 25 0
-4331 -54 27 0
-4331 -55 28 0
-4331 -56 26 0
4291 4292 0
4291 4293 0
-4293 4294 4295 0
-4293 4294 4296 0
-4296 4297 4298 0
-4296 4297 4299 0
-4299 4300 4301 0
-4299 4300 4302 0
-4302 4303 4304 0
-4302 4303 4305 0
-4305 4306 4307 0
-4305 4306 4308 0
-4308 4309 4310 0
-4308 4309 4311 0
-4311 4312 4313 0
-4311 4312 4314 0
-4314 4315 4316 0
-4314 4315 4317 0
-4317 4318 4319 0
-4317 4318 4320 0
-4320 4321 4322 0
-4320 4321 4323 0
-4323 4324 4325 0
-4323 4324 4326 0
-4326 4327 4328 0
-4326 4327 4329 0
-4329 4330 4331 0
-4329 4330 4332 0
-4332 4333 4334 0
-4332 4333 4335 0
-4335 4336 4337 0
-4333 -57 30 31 32 0
-4333 -58 30 32 0
-4333 -59 30 0
-4333 -60 0
-4334 -57 29 0
-4334 -58 31 0
-4334 -59 32 0
-4334 -60 30 0
4291 4292 0
4291 4293 0
-4293 4294 4295 0
-4293 4294 4296 0
-4296 4297 4298 0
-4296 4297 4299 0
-4299 4300 4301 0
-4299 4300 4302 0
-4302 4303 4304 0
-4302 4303 4305 0
-4305 4306 4307 0
-4305 4306 4308 0
-4308 4309 4310 0
-4308 4309 4311 0
-4311 4312 4313 0
-4311 4312 4314 0
-4314 4315 4316 0
-4314 4315 4317 0
-4317 4318 4319 0
-4317 4318 4320 0
-4320 4321 4322 0
-4320 4321 4323 0
-4323 4324 4325 0
-4323 4324 4326 0
-4326 4327 4328 0
-4326 4327 4329 0
-4329 4330 4331 0
-4329 4330 4332 0
-4332 4333 4334 0
-4332 4333 4335 0
-4335 4336 4337 0
-4336 -61 22 23 24 0
-4336 -62 22 24 0
-4336 -63 22 0
-4336 -64 0
-4337 -61 21 0
-4337 -62 23 0
-4337 -63 24 0
-4337 -64 22 0
4291 4292 0
4291 4293 0
-4293 4294 4295 0
-4293 4294 4296 0
-4296 4297 4298 0
-4296 4297 4299 0
-4299 4300 4301 0
-4299 4300 4302 0
-4302 4303 4304 0
-4302 4303 4305 0
-4305 4306 4307 0
-4305 4306 4308 0
-4308 4309 4310 0
-4308 4309 4311 0
-4311 4312 4313 0
-4311 4312 4314 0
-4314 4315 4316 0
-4314 4315 4317 0
-4317 4318 4319 0
-4317 4318 4320 0
-4320 4321 4322 0
-4320 4321 4323 0
-4323 4324 4325 0
-4323 4324 4326 0
-4326 4327 4328 0
-4326 4327 4329 0
-4329 4330 4331 0
-4329 4330 4332 0
-4332 4333 4334 0
-4332 4333 4335 0
-4335 4336 4337 0
